networks/zoo_76_1406/zoo_76_1406-lower.txt
Number of groups: 38
Flow 1: {1 2 0} {2 40 0} 
Flow 2: {1 4 0} {4 3 0} {3 41 0} 
Flow 3: {4 42 0} 
Flow 4: {2 8 0} {8 5 0} {5 43 0} 
Flow 5: {5 20 0} {20 6 0} {6 44 0} 
Flow 6: {1 7 0} {7 45 0} 
Flow 7: {8 46 0} 
Flow 8: {2 10 0} {10 24 0} {24 9 0} {9 47 0} 
Flow 9: {10 48 0} 
Flow 10: {4 12 0} {12 29 0} {29 11 0} {11 49 0} 
Flow 11: {12 50 0} 
Flow 12: {1 35 0} {35 13 0} {13 51 0} 
Flow 13: {35 14 0} {14 52 0} 
Flow 14: {35 15 0} {15 53 0} 
Flow 15: {14 16 0} {16 54 0} 
Flow 16: {35 17 0} {17 55 0} 
Flow 17: {35 18 0} {18 56 0} 
Flow 18: {24 19 0} {19 57 0} 
Flow 19: {20 58 0} 
Flow 20: {7 21 0} {21 59 0} 
Flow 21: {19 22 0} {22 60 0} 
Flow 22: {19 23 0} {23 61 0} 
Flow 23: {24 62 0} 
Flow 24: {35 25 0} {25 63 0} 
Flow 25: {16 34 0} {34 26 0} {26 64 0} 
Flow 26: {21 28 0} {28 27 0} {27 65 0} 
Flow 27: {28 66 0} 
Flow 28: {29 67 0} 
Flow 29: {12 30 0} {30 68 0} 
Flow 30: {37 31 0} {31 69 0} 
Flow 30: {35 36 0} {36 37 0} Flow 31: {14 33 0} {33 32 0} {32 70 0} 
Flow 32: {33 71 0} 
Flow 33: {34 72 0} 
Flow 34: {35 73 0} 
Flow 35: {36 74 0} 
Flow 36: {37 75 0} 
Flow 37: {11 38 0} {38 76 0} 
Flow 38: {2 1 0} {1 39 0} 
Flow 75: {3 4 0} {4 1 0} Flow 104: {11 31 0} Flow 149: {5 8 0} {8 2 0} Flow 156: {20 9 0} Flow 166: {9 24 0} Flow 173: {19 28 0} {27 26 0} Flow 186: {6 20 0} {20 5 0} Flow 194: {24 10 0} Flow 205: {28 21 0} Flow 218: {26 34 0} Flow 223: {7 1 0} Flow 234: {7 13 0} Flow 235: {7 35 0} Flow 240: {28 19 0} Flow 297: {10 2 0} Flow 301: {9 20 0} Flow 371: {11 29 0} {29 12 0} {12 4 0} Flow 382: {31 37 0} {37 36 0} {36 35 0} Flow 383: {31 32 0} {32 33 0} {33 14 0} Flow 385: {33 16 0} Flow 396: {26 27 0} Flow 445: {13 7 0} Flow 455: {13 35 0} {31 11 0} Flow 482: {14 35 0} {35 1 0} Flow 488: {35 7 0} Flow 492: {32 31 0} Flow 519: {15 35 0} Flow 556: {16 14 0} Flow 566: {16 33 0} Flow 573: {27 28 0} Flow 593: {17 35 0} Flow 630: {18 35 0} Flow 667: {21 7 0} Flow 668: {19 24 0} Flow 682: {34 16 0} Flow 778: {22 19 0} Flow 815: {23 19 0} Flow 889: {25 35 0} Flow 1074: {30 12 0} Flow 1370: {38 11 0} Time taken running everything: 1 seconds
