networks/zoo_76_1406/zoo_76_1406-lower.sol
<?xml version = "1.0" encoding="UTF-8" standalone="yes"?>
<CPLEXSolution version="1.2">
 <header
   problemName="networks/zoo_76_1406/zoo_76_1406-lower.lp"
   solutionName="incumbent"
   solutionIndex="-1"
   objectiveValue="38"
   solutionTypeValue="3"
   solutionTypeString="primal"
   solutionStatusValue="101"
   solutionStatusString="integer optimal solution"
   solutionMethodString="mip"
   primalFeasible="1"
   dualFeasible="1"
   MIPNodes="0"
   MIPIterations="0"
   writeLevel="3"/>
 <quality
   epInt="1.0000000000000001e-05"
   epRHS="9.9999999999999995e-07"
   maxIntInfeas="0"
   maxPrimalInfeas="0"
   maxX="1"
   maxSlack="1"/>
 <variables>
  <variable name="Y(1,2)" index="1" value="1"/>
  <variable name="Y(2,3)" index="78" value="1"/>
  <variable name="Y(3,4)" index="155" value="1"/>
  <variable name="Y(4,5)" index="232" value="1"/>
  <variable name="Y(5,6)" index="309" value="1"/>
  <variable name="Y(6,7)" index="386" value="1"/>
  <variable name="Y(7,8)" index="463" value="1"/>
  <variable name="Y(8,9)" index="540" value="1"/>
  <variable name="Y(9,10)" index="617" value="1"/>
  <variable name="Y(10,11)" index="694" value="1"/>
  <variable name="Y(11,12)" index="771" value="1"/>
  <variable name="Y(12,13)" index="848" value="1"/>
  <variable name="Y(13,14)" index="925" value="1"/>
  <variable name="Y(14,15)" index="1002" value="1"/>
  <variable name="Y(15,16)" index="1079" value="1"/>
  <variable name="Y(16,17)" index="1156" value="1"/>
  <variable name="Y(17,18)" index="1233" value="1"/>
  <variable name="Y(18,19)" index="1310" value="1"/>
  <variable name="Y(19,20)" index="1387" value="1"/>
  <variable name="Y(20,21)" index="1464" value="1"/>
  <variable name="Y(21,22)" index="1541" value="1"/>
  <variable name="Y(22,23)" index="1618" value="1"/>
  <variable name="Y(23,24)" index="1695" value="1"/>
  <variable name="Y(24,25)" index="1772" value="1"/>
  <variable name="Y(25,26)" index="1849" value="1"/>
  <variable name="Y(26,27)" index="1926" value="1"/>
  <variable name="Y(27,28)" index="2003" value="1"/>
  <variable name="Y(28,29)" index="2080" value="1"/>
  <variable name="Y(29,30)" index="2157" value="1"/>
  <variable name="Y(30,31)" index="2234" value="1"/>
  <variable name="Y(31,32)" index="2311" value="1"/>
  <variable name="Y(32,33)" index="2388" value="1"/>
  <variable name="Y(33,34)" index="2465" value="1"/>
  <variable name="Y(34,35)" index="2542" value="1"/>
  <variable name="Y(35,36)" index="2619" value="1"/>
  <variable name="Y(36,37)" index="2696" value="1"/>
  <variable name="Y(37,38)" index="2773" value="1"/>
  <variable name="Y(38,1)" index="2812" value="1"/>
  <variable name="X(1,2,1)" index="106856" value="1"/>
  <variable name="X(1,4,2)" index="108263" value="1"/>
  <variable name="X(1,7,6)" index="109673" value="1"/>
  <variable name="X(1,35,12)" index="111085" value="1"/>
  <variable name="X(1,39,38)" index="112517" value="1"/>
  <variable name="X(2,1,38)" index="113923" value="1"/>
  <variable name="X(2,8,4)" index="115295" value="1"/>
  <variable name="X(2,10,8)" index="116705" value="1"/>
  <variable name="X(2,40,1)" index="118104" value="1"/>
  <variable name="X(3,4,75)" index="119584" value="1"/>
  <variable name="X(3,41,2)" index="120917" value="1"/>
  <variable name="X(4,1,75)" index="122396" value="1"/>
  <variable name="X(4,3,2)" index="123729" value="1"/>
  <variable name="X(4,12,10)" index="125143" value="1"/>
  <variable name="X(4,42,3)" index="126542" value="1"/>
  <variable name="X(5,8,149)" index="128094" value="1"/>
  <variable name="X(5,20,5)" index="129356" value="1"/>
  <variable name="X(5,43,4)" index="130761" value="1"/>
  <variable name="X(6,20,186)" index="132349" value="1"/>
  <variable name="X(6,44,5)" index="133574" value="1"/>
  <variable name="X(7,1,223)" index="135198" value="1"/>
  <variable name="X(7,13,234)" index="136615" value="1"/>
  <variable name="X(7,21,20)" index="137807" value="1"/>
  <variable name="X(7,35,235)" index="139428" value="1"/>
  <variable name="X(7,45,6)" index="140605" value="1"/>
  <variable name="X(8,2,149)" index="142154" value="1"/>
  <variable name="X(8,5,4)" index="143415" value="1"/>
  <variable name="X(8,46,7)" index="144824" value="1"/>
  <variable name="X(9,20,301)" index="146524" value="1"/>
  <variable name="X(9,24,166)" index="147795" value="1"/>
  <variable name="X(9,47,8)" index="149043" value="1"/>
  <variable name="X(10,2,297)" index="150738" value="1"/>
  <variable name="X(10,24,8)" index="151855" value="1"/>
  <variable name="X(10,48,9)" index="153262" value="1"/>
  <variable name="X(11,29,371)" index="155030" value="1"/>
  <variable name="X(11,31,104)" index="156169" value="1"/>
  <variable name="X(11,38,37)" index="157508" value="1"/>
  <variable name="X(11,49,10)" index="158887" value="1"/>
  <variable name="X(12,4,371)" index="160654" value="1"/>
  <variable name="X(12,29,10)" index="161699" value="1"/>
  <variable name="X(12,30,29)" index="163124" value="1"/>
  <variable name="X(12,50,11)" index="164512" value="1"/>
  <variable name="X(13,7,445)" index="166352" value="1"/>
  <variable name="X(13,35,455)" index="167768" value="1"/>
  <variable name="X(13,51,12)" index="168731" value="1"/>
  <variable name="X(14,16,15)" index="170140" value="1"/>
  <variable name="X(14,33,31)" index="171562" value="1"/>
  <variable name="X(14,35,482)" index="173419" value="1"/>
  <variable name="X(14,52,13)" index="174356" value="1"/>
  <variable name="X(15,35,519)" index="176268" value="1"/>
  <variable name="X(15,53,14)" index="177169" value="1"/>
  <variable name="X(16,14,556)" index="179117" value="1"/>
  <variable name="X(16,33,566)" index="180533" value="1"/>
  <variable name="X(16,34,25)" index="181398" value="1"/>
  <variable name="X(16,54,15)" index="182794" value="1"/>
  <variable name="X(17,35,593)" index="184778" value="1"/>
  <variable name="X(17,55,16)" index="185607" value="1"/>
  <variable name="X(18,35,630)" index="187627" value="1"/>
  <variable name="X(18,56,17)" index="188420" value="1"/>
  <variable name="X(19,22,21)" index="189830" value="1"/>
  <variable name="X(19,23,22)" index="191237" value="1"/>
  <variable name="X(19,24,668)" index="193289" value="1"/>
  <variable name="X(19,28,173)" index="194200" value="1"/>
  <variable name="X(19,57,18)" index="195451" value="1"/>
  <variable name="X(20,5,186)" index="197025" value="1"/>
  <variable name="X(20,6,5)" index="198250" value="1"/>
  <variable name="X(20,9,156)" index="199807" value="1"/>
  <variable name="X(20,58,19)" index="201076" value="1"/>
  <variable name="X(21,7,667)" index="203130" value="1"/>
  <variable name="X(21,28,26)" index="203895" value="1"/>
  <variable name="X(21,59,20)" index="205295" value="1"/>
  <variable name="X(22,19,778)" index="207459" value="1"/>
  <variable name="X(22,60,21)" index="208108" value="1"/>
  <variable name="X(23,19,815)" index="210308" value="1"/>
  <variable name="X(23,61,22)" index="210921" value="1"/>
  <variable name="X(24,9,8)" index="212313" value="1"/>
  <variable name="X(24,10,194)" index="213905" value="1"/>
  <variable name="X(24,19,18)" index="215135" value="1"/>
  <variable name="X(24,62,23)" index="216546" value="1"/>
  <variable name="X(25,35,889)" index="218818" value="1"/>
  <variable name="X(25,63,24)" index="219359" value="1"/>
  <variable name="X(26,27,396)" index="221137" value="1"/>
  <variable name="X(26,34,218)" index="222365" value="1"/>
  <variable name="X(26,64,25)" index="223578" value="1"/>
  <variable name="X(27,26,173)" index="225132" value="1"/>
  <variable name="X(27,28,573)" index="226938" value="1"/>
  <variable name="X(27,65,26)" index="227797" value="1"/>
  <variable name="X(28,19,240)" index="229417" value="1"/>
  <variable name="X(28,21,205)" index="230788" value="1"/>
  <variable name="X(28,27,26)" index="232015" value="1"/>
  <variable name="X(28,66,27)" index="233422" value="1"/>
  <variable name="X(29,11,10)" index="234811" value="1"/>
  <variable name="X(29,12,371)" index="236578" value="1"/>
  <variable name="X(29,67,28)" index="237641" value="1"/>
  <variable name="X(30,12,1074)" index="240093" value="1"/>
  <variable name="X(30,68,29)" index="240454" value="1"/>
  <variable name="X(31,11,455)" index="242286" value="1"/>
  <variable name="X(31,32,383)" index="243620" value="1"/>
  <variable name="X(31,37,382)" index="245025" value="1"/>
  <variable name="X(31,69,30)" index="246079" value="1"/>
  <variable name="X(32,31,492)" index="247947" value="1"/>
  <variable name="X(32,33,383)" index="249244" value="1"/>
  <variable name="X(32,70,31)" index="250298" value="1"/>
  <variable name="X(33,14,383)" index="252056" value="1"/>
  <variable name="X(33,16,385)" index="253464" value="1"/>
  <variable name="X(33,32,31)" index="254516" value="1"/>
  <variable name="X(33,71,32)" index="255923" value="1"/>
  <variable name="X(34,16,682)" index="257979" value="1"/>
  <variable name="X(34,26,25)" index="258728" value="1"/>
  <variable name="X(34,72,33)" index="260142" value="1"/>
  <variable name="X(35,1,482)" index="261997" value="1"/>
  <variable name="X(35,7,488)" index="263409" value="1"/>
  <variable name="X(35,13,12)" index="264339" value="1"/>
  <variable name="X(35,14,13)" index="265746" value="1"/>
  <variable name="X(35,15,14)" index="267153" value="1"/>
  <variable name="X(35,17,16)" index="268561" value="1"/>
  <variable name="X(35,18,17)" index="269968" value="1"/>
  <variable name="X(35,25,24)" index="271381" value="1"/>
  <variable name="X(35,36,30)" index="272793" value="1"/>
  <variable name="X(35,73,34)" index="274203" value="1"/>
  <variable name="X(36,35,382)" index="275957" value="1"/>
  <variable name="X(36,37,30)" index="277011" value="1"/>
  <variable name="X(36,74,35)" index="278422" value="1"/>
  <variable name="X(37,31,30)" index="279823" value="1"/>
  <variable name="X(37,36,382)" index="281581" value="1"/>
  <variable name="X(37,75,36)" index="282641" value="1"/>
  <variable name="X(38,11,1370)" index="285381" value="1"/>
  <variable name="X(38,76,37)" index="285454" value="1"/>
 </variables>
</CPLEXSolution>
